200
100
100
100
100
100
98
98
97
97
96
96
95
95
95
95
94
93
93
93
91
91
91
91
91
91
90
90
87
87
86
85
85
85
84
84
82
81
81
81
79
78
78
76
76
75
75
75
75
74
74
74
72
72
72
72
71
70
69
69
69
69
67
67
67
67
66
66
66
65
64
64
64
64
63
62
61
61
60
60
59
58
57
56
55
55
55
54
53
53
53
52
52
50
50
49
47
47
46
46
45
44
44
43
43
42
42
41
41
41
40
40
39
39
39
39
38
38
38
37
36
35
35
34
34
33
33
32
32
32
32
32
32
31
31
31
30
30
30
30
30
29
28
28
27
27
26
25
24
24
24
23
23
23
23
22
22
22
21
21
21
20
19
19
19
18
18
17
17
16
16
15
15
14
14
13
12
12
11
10
10
9
8
8
8
8
7
7
7
7
6
6
5
4
3
3
3
3
2
2
1
1
